[[46, 8, 7, 35, 19, 53, 14, 59, 11, 66, 65, 38, 10, 31], [58, 72, 39, 9, 40, 12, 17, 26, 76, 75, 68, 6, 51, 16, 3, 44, 32, 50], [25, 55, 18, 24, 49, 63, 23, 56, 43, 41, 42, 64, 22], [61, 28, 62, 73, 33, 2, 74, 30, 45, 29, 5, 48, 47, 21, 36, 69], [71, 60, 70, 20, 37, 15, 57, 13, 54, 27, 52, 34, 4, 67]]